n = 49;
rows = 108;
supports = [|
  {1},2..7,
 |{1},44..49,
 |{2},{1},
 |{2},3..8,
 |{2},45..49,
 |{3},1..2,
 |{3},4..9,
 |{3},46..49,
 |{4},1..3,
 |{4},5..10,
 |{4},47..49,
 |{5},1..4,
 |{5},6..11,
 |{5},48..49,
 |{6},1..5,
 |{6},7..12,
 |{6},{49},
 |{7},1..6,
 |{7},8..13,
 |{8},2..7,
 |{8},9..14,
 |{9},3..8,
 |{9},10..15,
 |{10},4..9,
 |{10},11..16,
 |{11},5..10,
 |{11},12..17,
 |{12},6..11,
 |{12},13..18,
 |{13},7..12,
 |{13},14..19,
 |{14},8..13,
 |{14},15..20,
 |{15},9..14,
 |{15},16..21,
 |{16},10..15,
 |{16},17..22,
 |{17},11..16,
 |{17},18..23,
 |{18},12..17,
 |{18},19..24,
 |{19},13..18,
 |{19},20..25,
 |{20},14..19,
 |{20},21..26,
 |{21},15..20,
 |{21},22..27,
 |{22},16..21,
 |{22},23..28,
 |{23},17..22,
 |{23},24..29,
 |{24},18..23,
 |{24},25..30,
 |{25},19..24,
 |{25},26..31,
 |{26},20..25,
 |{26},27..32,
 |{27},21..26,
 |{27},28..33,
 |{28},22..27,
 |{28},29..34,
 |{29},23..28,
 |{29},30..35,
 |{30},24..29,
 |{30},31..36,
 |{31},25..30,
 |{31},32..37,
 |{32},26..31,
 |{32},33..38,
 |{33},27..32,
 |{33},34..39,
 |{34},28..33,
 |{34},35..40,
 |{35},29..34,
 |{35},36..41,
 |{36},30..35,
 |{36},37..42,
 |{37},31..36,
 |{37},38..43,
 |{38},32..37,
 |{38},39..44,
 |{39},33..38,
 |{39},40..45,
 |{40},34..39,
 |{40},41..46,
 |{41},35..40,
 |{41},42..47,
 |{42},36..41,
 |{42},43..48,
 |{43},37..42,
 |{43},44..49,
 |{44},38..43,
 |{44},45..49,
 |{44},{1},
 |{45},39..44,
 |{45},46..49,
 |{45},1..2,
 |{46},40..45,
 |{46},47..49,
 |{46},1..3,
 |{47},41..46,
 |{47},48..49,
 |{47},1..4,
 |{48},42..47,
 |{48},{49},
 |{48},1..5,
 |{49},43..48,
 |{49},1..6 |];

t = 59;

indexes = [|
    0,28,
  | 1,42,
  | 2,16,
  | 3,27,
  | 3,46,
  | 4,7,
  | 4,22,
  | 4,33,
  | 5,41,
  | 6,26,
  | 6,31,
  | 6,41,
  | 6,42,
  | 8,32,
  | 9,13,
  | 9,24,
  | 10,39,
  | 11,21,
  | 11,31,
  | 12,26,
  | 13,45,
  | 14,18,
  | 14,32,
  | 14,34,
  | 15,27,
  | 15,38,
  | 16,24,
  | 16,27,
  | 17,23,
  | 17,27,
  | 18,25,
  | 18,31,
  | 18,42,
  | 19,24,
  | 19,46,
  | 20,26,
  | 21,47,
  | 22,39,
  | 22,44,
  | 23,32,
  | 25,42,
  | 25,45,
  | 26,31,
  | 27,46,
  | 28,30,
  | 28,48,
  | 29,42,
  | 32,37,
  | 32,39,
  | 33,37,
  | 33,46,
  | 35,39,
  | 36,47,
  | 36,48,
  | 39,43,
  | 40,42,
  | 45,46,
  | 45,47,
  | 45,48 |];

